Traveling Salesman Problem/TSP_generados/Aleatorio1621103318_9.tsp
NAME: Aleatorio1621103318_9.tsp
COMMENT: Randomly generated scenario
TYPE: TSP
DIMENSION: 9
EDGE_WEIGHT_TYPE: ATT
NODE_COORD_SECTION
1 8.62 27.04
2 4.06 4.17
3 37.49 42.08
4 7.35 43.62
5 19.1 14.74
6 8.18 42.4
7 25.93 49.0
8 2.65 9.19
9 41.9 9.36
