Traveling Salesman Problem/TSP_generados/Aleatorio1621103318_9.opt.tour
NAME: Aleatorio1621103318_9.opt.tour
COMMENT: Optimal solution for Aleatorio1621103318_9 (148.51896365188804)
TYPE: TOUR
DIMENSION: 9
TOUR_SECTION
1 6 4 7 3 9 5 2 8
-1
EOF
